1304 2312
3639 1315
4177 2244
3712 1399
3488 1535
3326 1556
3238 1229
4196 1004
4312 790
4386 570
3007 1970
2562 1756
2788 1491
2381 1676
1332 695
3715 1678
3918 2179
4061 2370
3780 2212
3676 2578
4029 2838
4263 2931
3429 1908
3507 2367
3394 2643
3439 3201
2935 3240
3140 3550
2545 2357
2778 2826
2370 2975
1650 5569
2599 9705
6711 1589
8918 6052
5139 1433
9859 4398
3538 2805
4431 4218
8138 6739
2171 5855
7713 5587
8381 5112
8246 6304
1806 9726
6927 3138
7056 1380
9013 9867
2093 2700
4502 9669
1306 5677